MARKOV
9
3 27 9 3 3 18 2 3 3 
14
1 0
1 1
1 2
1 3
1 4
1 5
1 6
1 7
1 8
2 1 2
2 2 4
2 4 5
2 5 6
2 5 7

3
0.115590 0.000001 1.000000 
27
0.000034 0.000008 0.000001 0.021278 0.027963 0.014098 0.005025 0.076515 0.000071 0.001081 0.000591 0.000001 0.003194 0.004410 0.000693 0.000001 0.000303 0.000031 0.003100 0.173712 0.000788 0.052160 1.000000 0.047732 0.000728 0.030049 0.071837 
9
0.000001 0.000001 0.000001 0.000001 0.000001 0.000001 0.000052 1.000000 0.000001 
3
0.000003 0.000001 1.000000 
3
0.118130 0.000001 1.000000 
18
0.000001 0.000155 0.000017 0.000334 0.000256 0.000001 0.001033 0.058234 0.000848 0.006913 0.040400 0.000001 0.000001 1.000000 0.031803 0.000002 0.051742 0.000227 
2
1.000000 0.050224 
3
0.000001 0.000045 0.119836 
3
0.000001 0.000003 0.010038 
243
1.000000 1.000000 1.000000 1.000000 1.000000 1.000000 0.000001 0.000001 0.000001 1.000000 1.000000 1.000000 1.000000 1.000000 1.000000 0.000001 0.000354 0.000001 1.000000 1.000000 1.000000 1.000000 1.000000 1.000000 0.000001 0.000001 0.000001 1.000000 1.000000 1.000000 1.000000 1.000000 1.000000 1.000000 1.000000 0.027117 1.000000 1.000000 1.000000 1.000000 1.000000 1.000000 0.880879 1.000000 0.014894 1.000000 1.000000 1.000000 1.000000 1.000000 1.000000 0.972803 1.000000 0.016126 1.000000 1.000000 1.000000 1.000000 1.000000 1.000000 1.000000 1.000000 0.637496 1.000000 1.000000 1.000000 1.000000 1.000000 1.000000 0.677829 1.000000 0.012094 1.000000 1.000000 1.000000 1.000000 1.000000 1.000000 1.000000 1.000000 0.291343 1.000000 1.000000 1.000000 1.000000 1.000000 1.000000 1.000000 1.000000 1.000000 1.000000 1.000000 1.000000 1.000000 1.000000 1.000000 1.000000 1.000000 1.000000 1.000000 1.000000 1.000000 1.000000 1.000000 1.000000 1.000000 1.000000 1.000000 1.000000 1.000000 1.000000 1.000000 1.000000 1.000000 1.000000 1.000000 1.000000 1.000000 1.000000 1.000000 1.000000 1.000000 1.000000 1.000000 1.000000 1.000000 1.000000 1.000000 1.000000 1.000000 1.000000 1.000000 1.000000 1.000000 1.000000 1.000000 1.000000 1.000000 1.000000 1.000000 1.000000 1.000000 1.000000 1.000000 1.000000 1.000000 1.000000 1.000000 1.000000 1.000000 0.001368 1.000000 0.829989 1.000000 1.000000 1.000000 1.000000 1.000000 1.000000 0.002691 1.000000 1.000000 1.000000 1.000000 1.000000 1.000000 1.000000 1.000000 1.000000 1.000000 1.000000 1.000000 1.000000 1.000000 1.000000 1.000000 1.000000 1.000000 1.000000 1.000000 1.000000 1.000000 1.000000 1.000000 1.000000 1.000000 1.000000 1.000000 1.000000 1.000000 1.000000 1.000000 1.000000 1.000000 1.000000 1.000000 1.000000 1.000000 1.000000 1.000000 1.000000 1.000000 1.000000 1.000000 1.000000 1.000000 1.000000 1.000000 1.000000 1.000000 1.000000 1.000000 1.000000 1.000000 1.000000 1.000000 1.000000 1.000000 1.000000 1.000000 1.000000 1.000000 1.000000 1.000000 1.000000 1.000000 1.000000 1.000000 1.000000 1.000000 1.000000 1.000000 1.000000 1.000000 1.000000 1.000000 1.000000 1.000000 1.000000 1.000000 1.000000 1.000000 1.000000 
27
1.000000 1.000000 0.000001 1.000000 1.000000 0.000001 1.000000 1.000000 0.000001 1.000000 1.000000 1.000000 1.000000 1.000000 1.000000 1.000000 1.000000 1.000000 1.000000 1.000000 1.000000 1.000000 1.000000 1.000000 1.000000 1.000000 1.000000 
54
1.000000 1.000000 1.000000 1.000000 1.000000 1.000000 1.000000 1.000000 1.000000 1.000000 1.000000 1.000000 1.000000 0.000540 1.000000 1.000000 0.004568 1.000000 1.000000 1.000000 1.000000 1.000000 1.000000 1.000000 1.000000 1.000000 1.000000 1.000000 1.000000 1.000000 1.000000 1.000000 1.000000 1.000000 1.000000 1.000000 1.000000 1.000000 1.000000 1.000000 1.000000 1.000000 1.000000 1.000000 1.000000 1.000000 1.000000 1.000000 1.000000 1.000000 1.000000 1.000000 1.000000 1.000000 
36
1.000000 1.000000 1.000000 1.000000 1.000000 1.000000 1.000000 1.000000 1.000000 1.000000 1.000000 1.000000 1.000000 1.000000 1.000000 1.000000 0.000050 0.001677 0.002575 0.053457 1.000000 1.000000 0.013526 0.534964 1.000000 1.000000 1.000000 1.000000 1.000000 1.000000 1.000000 1.000000 1.000000 1.000000 1.000000 1.000000 
54
1.000000 1.000000 0.000001 1.000000 1.000000 0.000001 1.000000 1.000000 0.000001 1.000000 1.000000 0.000001 1.000000 1.000000 0.000001 1.000000 1.000000 0.000001 1.000000 1.000000 1.000000 1.000000 1.000000 1.000000 1.000000 1.000000 1.000000 1.000000 1.000000 1.000000 1.000000 1.000000 1.000000 1.000000 1.000000 1.000000 1.000000 1.000000 1.000000 1.000000 1.000000 1.000000 1.000000 1.000000 1.000000 1.000000 1.000000 1.000000 1.000000 1.000000 1.000000 1.000000 1.000000 1.000000 
